column=7;
row=7;
max=5;
left=[0, 5, 4, 0, 1, 0, 0];
right=[0, 0, 0, 0, 0, 0, 2];
top=[2, 0, 0, 4, 1, 3, 0];
bottom=[0, 2, 0, 0, 0, 0, 5];
Board=[|2,5,0,4,0,3,0|5,0,2,0,0,1,0|0,3,1,5,0,0,0|0,0,5,0,2,0,1|0,1,0,2,3,0,4|1,0,0,0,4,0,5|0,0,4,0,5,0,0|]